WARNING: for repeatability, setting FPU to use double precision
============================[ Problem Statistics ]=============================
|                                                                             |
|  Number of variables:         24062                                         |
|  Number of clauses:          454302                                         |
|  Parse time:                   0.07 s                                       |
|                                                                             |
c ============================[ Search Statistics ]==============================
c | Conflicts |          ORIGINAL         |          LEARNT          | Progress |
c |           |    Vars  Clauses Literals |    Limit  Clauses Lit/Cl |          |
c ===============================================================================
We had 8268 decisions of which only 0 were on extended
We had 2264971 decisions of which only 0 were on extended
We had 3623537 decisions of which only 0 were on extended
c Switched to VSIDS.
We had 5725069 decisions of which only 0.00108296 were on extended
We had 7779714 decisions of which only 0.00347056 were on extended
We had 9609825 decisions of which only 0.00516138 were on extended
We had 9634587 decisions of which only 0.00514812 were on extended
c Switched to LRB.
We had 9662621 decisions of which only 0.00513318 were on extended
We had 9693822 decisions of which only 0.00511666 were on extended
We had 9720743 decisions of which only 0.00510249 were on extended
We had 9748722 decisions of which only 0.00508785 were on extended
We had 9773216 decisions of which only 0.0050751 were on extended
c Switched to VSIDS.
We had 9796715 decisions of which only 0.00507313 were on extended
We had 9817039 decisions of which only 0.00506263 were on extended
We had 9838436 decisions of which only 0.00508211 were on extended
We had 9857022 decisions of which only 0.0051334 were on extended
We had 9877748 decisions of which only 0.00512263 were on extended
We had 9897839 decisions of which only 0.00513243 were on extended
c Switched to LRB.
We had 9921440 decisions of which only 0.00524117 were on extended
Window full
Continue
We had 9942950 decisions of which only 0.00540081 were on extended
We had 9963174 decisions of which only 0.00549022 were on extended
We had 9980962 decisions of which only 0.00559064 were on extended
We had 10002619 decisions of which only 0.00578848 were on extended
We had 10022986 decisions of which only 0.00605608 were on extended
c Switched to VSIDS.
We had 10043714 decisions of which only 0.00625267 were on extended
We had 10063391 decisions of which only 0.00666773 were on extended
We had 10082058 decisions of which only 0.00761749 were on extended
We had 10098677 decisions of which only 0.00786242 were on extended
We had 10117378 decisions of which only 0.00821359 were on extended
Window full
Continue
We had 10134728 decisions of which only 0.00839687 were on extended
We had 10154170 decisions of which only 0.0088732 were on extended
c Switched to LRB.
We had 10173683 decisions of which only 0.00930833 were on extended
We had 10190802 decisions of which only 0.00950857 were on extended
We had 10209352 decisions of which only 0.0100006 were on extended
We had 10225494 decisions of which only 0.0105129 were on extended
We had 10243869 decisions of which only 0.0110115 were on extended
We had 10261156 decisions of which only 0.0111781 were on extended
We had 10278362 decisions of which only 0.0115583 were on extended
We had 10295345 decisions of which only 0.0120637 were on extended
Window full
Continue
We had 10311502 decisions of which only 0.012617 were on extended
We had 10327313 decisions of which only 0.0129075 were on extended
c Switched to VSIDS.
We had 10344429 decisions of which only 0.0133502 were on extended
We had 10362817 decisions of which only 0.013973 were on extended
We had 10378895 decisions of which only 0.0150401 were on extended
We had 10395899 decisions of which only 0.0159294 were on extended
We had 10412868 decisions of which only 0.0170078 were on extended
c Switched to LRB.
We had 10430708 decisions of which only 0.0178511 were on extended
We had 10447503 decisions of which only 0.0190668 were on extended
We had 10463607 decisions of which only 0.019888 were on extended
Window full
Continue
We had 10479063 decisions of which only 0.0211851 were on extended
We had 10495493 decisions of which only 0.0219713 were on extended
We had 10511621 decisions of which only 0.0225845 were on extended
We had 10527753 decisions of which only 0.0239747 were on extended
c Switched to VSIDS.
We had 10546111 decisions of which only 0.0257062 were on extended
We had 10561793 decisions of which only 0.0276468 were on extended
We had 10579398 decisions of which only 0.0299734 were on extended
We had 10596461 decisions of which only 0.0318503 were on extended
We had 10611596 decisions of which only 0.0335953 were on extended
We had 10628115 decisions of which only 0.0351709 were on extended
Window full
Continue
We had 10644207 decisions of which only 0.0368088 were on extended
We had 10660227 decisions of which only 0.0381324 were on extended
We had 10675966 decisions of which only 0.0399402 were on extended
c Switched to LRB.
We had 10691230 decisions of which only 0.04181 were on extended
We had 10705760 decisions of which only 0.0426686 were on extended
We had 10720360 decisions of which only 0.0433661 were on extended
We had 10735154 decisions of which only 0.0439304 were on extended
We had 10750008 decisions of which only 0.0464279 were on extended
We had 10765027 decisions of which only 0.0492892 were on extended
We had 10780304 decisions of which only 0.0508056 were on extended
Window full
Continue
We had 10795200 decisions of which only 0.0515877 were on extended
c Switched to VSIDS.
We had 10810067 decisions of which only 0.053996 were on extended
We had 10824491 decisions of which only 0.0559842 were on extended
We had 10839243 decisions of which only 0.0579192 were on extended
c ===============================================================================
restarts                  : 1799
conflicts                 : 726588         (1897 /sec)
decisions                 : 10848960       (0.00 % random) (28327 /sec)
propagations              : 608378591      (1588519 /sec)
conflict literals         : 29738366       (33.08 % deleted)

conflicts w/ DIP found    : 538918         (74.17 % of conflicts)
conflicts w/ dangerous DIP: 0              (0.00 % of conflicts)
conflicts w/ DIP-learning : 2194           (0.30 % of conflicts)
decisions on ext vars     : 6515           (0.06 % of decisions)
total ext vars            : 336         
tried delete ext vars     : 1           
deleted ext vars          : 1           
max ext vars              : 335         

Memory used               : 148.00 MB
CPU time                  : 382.985 s
DIP computation time      : 8.73606 s (2.28 % of total time)
ER_sel time               : 0.762307 s
ER_add time               : 0.003012 s
ER_delC time              : 0 s
ER_delV time              : 0.000836 s
ER_sub time               : 1.12591 s
ER_stat time              : 0 s

UNSATISFIABLE
